1 -1 2 0
1 -1 -3 0
1 -1 -4 0
1 1 -5 0
1 -2 3 0
1 -2 4 0
1 -2 1 0
1 -2 6 0
1 -2 5 0
1 7 -8 0
1 7 9 0
1 -7 10 0
1 7 -3 0
1 7 -4 0
1 7 -11 0
1 7 -12 0
1 7 -6 0
1 -10 8 0
1 10 -9 0
1 10 -3 0
1 10 4 0
1 10 11 0
1 10 -12 0
1 10 -7 0
1 -10 -6 0
1 10 -5 0
1 -4 -13 0
1 4 -14 0
1 4 15 0
1 4 -10 0
1 -4 2 0
1 -4 -16 0
1 4 -17 0
1 4 18 0
1 -4 7 0
1 4 5 0
1 5 -19 0
1 5 13 0
1 -5 14 0
1 5 -15 0
1 5 -2 0
1 -5 -4 0
1 -5 18 0
1 5 20 0
1 5 -1 0
1 3 -13 0
1 3 -21 0
1 -3 -22 0
1 -3 10 0
1 -3 2 0
1 3 17 0
1 -3 23 0
1 3 24 0
1 3 -7 0
1 3 -1 0
1 -3 -6 0
1 6 -13 0
1 -6 21 0
1 -6 -22 0
1 -6 10 0
1 -6 -2 0
1 6 -3 0
1 6 -17 0
1 6 -23 0
1 -6 -24 0
1 6 1 0
1 20 -8 0
1 -20 -9 0
1 20 15 0
1 -20 4 0
1 -20 11 0
1 20 -12 0
1 -20 -24 0
1 20 -5 0
1 -15 -8 0
1 -15 9 0
1 -15 22 0
1 15 -4 0
1 -15 11 0
1 -15 -12 0
1 15 20 0
1 15 -5 0
1 18 8 0
1 18 -9 0
1 18 25 0
1 -18 4 0
1 -18 11 0
1 -18 -12 0
1 -18 -26 0
1 -18 -27 0
1 18 -5 0
1 -14 8 0
1 14 -9 0
1 14 28 0
1 -14 21 0
1 14 -25 0
1 14 -4 0
1 -14 -11 0
1 14 -18 0
1 14 -26 0
1 14 -27 0
1 12 29 0
1 -12 30 0
1 -12 9 0
1 -12 15 0
1 -12 -10 0
1 -12 31 0
1 12 -32 0
1 12 33 0
1 12 18 0
1 12 -20 0
1 -12 7 0
1 -12 34 0
1 9 29 0
1 -9 -14 0
1 9 15 0
1 9 -10 0
1 9 -31 0
1 -9 32 0
1 9 33 0
1 -9 -12 0
1 -9 18 0
1 9 -20 0
1 9 34 0
1 11 8 0
1 11 -35 0
1 -11 13 0
1 11 14 0
1 -11 15 0
1 -11 -10 0
1 -11 -31 0
1 -11 -36 0
1 11 17 0
1 -11 18 0
1 -11 7 0
1 -11 34 0
1 -8 35 0
1 -8 13 0
1 8 14 0
1 8 -15 0
1 -8 10 0
1 -8 -31 0
1 8 -11 0
1 -8 -36 0
1 8 -17 0
1 8 18 0
1 -8 -7 0
1 -8 -34 0
1 -33 -30 0
1 33 -9 0
1 -33 28 0
1 -33 -25 0
1 -33 -12 0
1 33 -17 0
1 -33 26 0
1 33 -27 0
1 -30 -9 0
1 -30 -13 0
1 -30 28 0
1 30 25 0
1 -30 33 0
1 -30 -12 0
1 30 26 0
1 -30 27 0
1 -32 29 0
1 -32 9 0
1 32 -28 0
1 32 25 0
1 -32 -12 0
1 -32 -26 0
1 -32 27 0
1 29 35 0
1 -29 -9 0
1 -29 28 0
1 -29 -25 0
1 -29 -32 0
1 29 12 0
1 29 -26 0
1 -29 27 0
1 -27 -29 0
1 27 -30 0
1 27 14 0
1 27 -25 0
1 27 33 0
1 27 18 0
1 -25 -29 0
1 25 -30 0
1 -25 14 0
1 25 -32 0
1 -25 -33 0
1 -25 -18 0
1 -25 -27 0
1 -26 29 0
1 26 -30 0
1 26 -14 0
1 26 28 0
1 26 -37 0
1 26 -31 0
1 -26 -33 0
1 26 18 0
1 26 38 0
1 26 -34 0
1 -28 29 0
1 28 30 0
1 28 -14 0
1 28 -37 0
1 -28 -31 0
1 28 -32 0
1 28 -33 0
1 -28 -18 0
1 -28 -26 0
1 28 -38 0
1 -28 34 0
1 24 -39 0
1 -24 22 0
1 -24 -40 0
1 -24 -41 0
1 24 -20 0
1 -24 -6 0
1 -22 39 0
1 22 -3 0
1 22 -40 0
1 -22 -41 0
1 22 -24 0
1 22 -6 0
1 23 -21 0
1 23 -39 0
1 -23 -42 0
1 -23 43 0
1 23 44 0
1 -23 -3 0
1 23 40 0
1 23 18 0
1 -23 -41 0
1 23 45 0
1 23 46 0
1 23 6 0
1 21 -41 0
1 -21 -14 0
1 21 -39 0
1 21 -42 0
1 21 -43 0
1 21 44 0
1 21 -3 0
1 21 -40 0
1 21 -23 0
1 21 45 0
1 -21 -46 0
1 -21 6 0
1 -42 -41 0
1 42 -35 0
1 42 -13 0
1 -42 -21 0
1 -42 22 0
1 -42 36 0
1 42 -17 0
1 -42 -23 0
1 41 -35 0
1 -41 -21 0
1 -41 22 0
1 -41 -42 0
1 41 36 0
1 41 17 0
1 41 23 0
1 -41 24 0
1 -39 21 0
1 39 22 0
1 -39 23 0
1 -39 -24 0
1 40 -21 0
1 40 39 0
1 40 -22 0
1 -40 -23 0
1 40 -24 0
1 17 -8 0
1 -17 -13 0
1 -17 -42 0
1 -17 -43 0
1 -17 44 0
1 -17 3 0
1 -17 11 0
1 -17 -33 0
1 -17 -41 0
1 -17 -45 0
1 -17 -46 0
1 17 -6 0
1 17 5 0
1 -13 -8 0
1 -13 42 0
1 -13 43 0
1 -13 -44 0
1 13 3 0
1 13 4 0
1 -13 -11 0
1 -13 17 0
1 -13 -41 0
1 13 -45 0
1 13 -46 0
1 13 -6 0
1 -13 5 0
1 36 -19 0
1 -36 -8 0
1 -36 35 0
1 -36 -42 0
1 -36 -43 0
1 -36 44 0
1 36 47 0
1 -36 -16 0
1 -36 11 0
1 36 -32 0
1 36 41 0
1 -36 -45 0
1 -36 46 0
1 -36 48 0
1 35 -19 0
1 35 8 0
1 -35 -42 0
1 -35 -43 0
1 -35 -44 0
1 35 47 0
1 35 -16 0
1 35 -36 0
1 35 -41 0
1 -35 -45 0
1 -35 46 0
1 35 48 0
1 44 35 0
1 -44 -13 0
1 -44 21 0
1 44 37 0
1 44 -31 0
1 44 -36 0
1 -44 -23 0
1 -44 -46 0
1 44 38 0
1 44 -34 0
1 -46 35 0
1 46 -13 0
1 -46 -21 0
1 -46 44 0
1 46 37 0
1 -46 31 0
1 46 -17 0
1 -46 -23 0
1 -46 38 0
1 -46 -34 0
1 43 -35 0
1 43 -13 0
1 -43 -21 0
1 -43 36 0
1 -43 17 0
1 -43 23 0
1 43 45 0
1 -45 35 0
1 -45 13 0
1 45 21 0
1 -45 43 0
1 45 36 0
1 45 17 0
1 -45 -23 0
1 -31 19 0
1 31 8 0
1 31 9 0
1 -31 28 0
1 -31 44 0
1 31 47 0
1 31 -11 0
1 31 16 0
1 31 12 0
1 31 -46 0
1 31 48 0
1 -31 -34 0
1 34 -8 0
1 -34 -19 0
1 -34 9 0
1 -34 -28 0
1 34 44 0
1 -34 31 0
1 -34 -16 0
1 34 11 0
1 -34 -26 0
1 34 46 0
1 -34 48 0
1 37 -19 0
1 -37 -28 0
1 37 -44 0
1 37 47 0
1 37 -16 0
1 -37 26 0
1 37 -46 0
1 -37 -48 0
1 38 -28 0
1 -38 -44 0
1 38 -37 0
1 -38 47 0
1 -38 -16 0
1 38 26 0
1 38 48 0
1 38 46 0
1 -16 -19 0
1 -16 35 0
1 -16 37 0
1 -16 -31 0
1 -16 -4 0
1 16 -36 0
1 16 38 0
1 -16 34 0
1 -19 35 0
1 19 -37 0
1 -19 31 0
1 19 16 0
1 19 -5 0
1 19 -38 0
1 -47 -35 0
1 47 -37 0
1 47 3 0
1 47 31 0
1 47 36 0
1 47 -38 0
1 -47 48 0
1 47 34 0
1 48 35 0
1 48 -37 0
1 48 -47 0
1 48 -31 0
1 48 36 0
1 48 38 0
1 48 -34 0
